FourierSAT_Github_AIJ/benchmarks/MAXSAT_benchmarks/random/1/abrame-habet/v180/s2v180c1200-1.cnf
c Generated after 1 tries
c Graph with 180 nodes and 600 edges, Max edges:16110
c generated from an undirected graph
c to solve unweighted MaxCut
p cnf 180 1200
1 3 0
-1 -3 0
1 12 0
-1 -12 0
1 138 0
-1 -138 0
1 140 0
-1 -140 0
1 150 0
-1 -150 0
1 165 0
-1 -165 0
2 14 0
-2 -14 0
2 66 0
-2 -66 0
2 80 0
-2 -80 0
2 81 0
-2 -81 0
2 101 0
-2 -101 0
2 157 0
-2 -157 0
2 167 0
-2 -167 0
3 4 0
-3 -4 0
3 16 0
-3 -16 0
3 43 0
-3 -43 0
3 54 0
-3 -54 0
3 59 0
-3 -59 0
3 65 0
-3 -65 0
3 99 0
-3 -99 0
3 127 0
-3 -127 0
3 149 0
-3 -149 0
4 49 0
-4 -49 0
4 71 0
-4 -71 0
4 90 0
-4 -90 0
4 96 0
-4 -96 0
4 121 0
-4 -121 0
4 163 0
-4 -163 0
4 170 0
-4 -170 0
5 20 0
-5 -20 0
5 64 0
-5 -64 0
5 175 0
-5 -175 0
6 16 0
-6 -16 0
6 24 0
-6 -24 0
6 91 0
-6 -91 0
6 94 0
-6 -94 0
6 102 0
-6 -102 0
6 125 0
-6 -125 0
6 132 0
-6 -132 0
6 163 0
-6 -163 0
7 44 0
-7 -44 0
7 53 0
-7 -53 0
7 84 0
-7 -84 0
7 112 0
-7 -112 0
7 119 0
-7 -119 0
7 131 0
-7 -131 0
8 33 0
-8 -33 0
8 34 0
-8 -34 0
8 70 0
-8 -70 0
8 74 0
-8 -74 0
8 106 0
-8 -106 0
8 113 0
-8 -113 0
8 139 0
-8 -139 0
8 148 0
-8 -148 0
8 150 0
-8 -150 0
9 11 0
-9 -11 0
9 13 0
-9 -13 0
9 41 0
-9 -41 0
9 64 0
-9 -64 0
10 14 0
-10 -14 0
10 24 0
-10 -24 0
10 70 0
-10 -70 0
10 94 0
-10 -94 0
10 99 0
-10 -99 0
10 104 0
-10 -104 0
10 121 0
-10 -121 0
10 166 0
-10 -166 0
11 53 0
-11 -53 0
11 86 0
-11 -86 0
11 146 0
-11 -146 0
11 149 0
-11 -149 0
12 25 0
-12 -25 0
12 26 0
-12 -26 0
12 33 0
-12 -33 0
12 79 0
-12 -79 0
12 83 0
-12 -83 0
12 118 0
-12 -118 0
12 127 0
-12 -127 0
12 134 0
-12 -134 0
13 35 0
-13 -35 0
13 46 0
-13 -46 0
13 101 0
-13 -101 0
13 121 0
-13 -121 0
14 33 0
-14 -33 0
14 42 0
-14 -42 0
14 47 0
-14 -47 0
14 93 0
-14 -93 0
14 125 0
-14 -125 0
14 166 0
-14 -166 0
15 38 0
-15 -38 0
15 90 0
-15 -90 0
15 98 0
-15 -98 0
15 147 0
-15 -147 0
16 20 0
-16 -20 0
16 26 0
-16 -26 0
16 93 0
-16 -93 0
16 134 0
-16 -134 0
16 149 0
-16 -149 0
16 155 0
-16 -155 0
17 27 0
-17 -27 0
17 93 0
-17 -93 0
17 103 0
-17 -103 0
17 140 0
-17 -140 0
17 156 0
-17 -156 0
17 159 0
-17 -159 0
17 163 0
-17 -163 0
17 170 0
-17 -170 0
18 99 0
-18 -99 0
18 128 0
-18 -128 0
18 168 0
-18 -168 0
18 174 0
-18 -174 0
18 179 0
-18 -179 0
19 123 0
-19 -123 0
19 136 0
-19 -136 0
19 144 0
-19 -144 0
19 157 0
-19 -157 0
19 173 0
-19 -173 0
20 59 0
-20 -59 0
20 63 0
-20 -63 0
20 73 0
-20 -73 0
20 88 0
-20 -88 0
20 121 0
-20 -121 0
21 31 0
-21 -31 0
21 64 0
-21 -64 0
21 87 0
-21 -87 0
21 129 0
-21 -129 0
21 154 0
-21 -154 0
21 156 0
-21 -156 0
21 160 0
-21 -160 0
22 42 0
-22 -42 0
22 73 0
-22 -73 0
22 131 0
-22 -131 0
22 143 0
-22 -143 0
22 155 0
-22 -155 0
23 62 0
-23 -62 0
23 74 0
-23 -74 0
23 113 0
-23 -113 0
23 157 0
-23 -157 0
24 34 0
-24 -34 0
24 38 0
-24 -38 0
24 81 0
-24 -81 0
24 86 0
-24 -86 0
24 102 0
-24 -102 0
24 138 0
-24 -138 0
25 41 0
-25 -41 0
25 47 0
-25 -47 0
25 65 0
-25 -65 0
25 80 0
-25 -80 0
25 90 0
-25 -90 0
25 102 0
-25 -102 0
26 39 0
-26 -39 0
26 56 0
-26 -56 0
26 66 0
-26 -66 0
26 73 0
-26 -73 0
26 92 0
-26 -92 0
26 99 0
-26 -99 0
26 122 0
-26 -122 0
27 38 0
-27 -38 0
27 51 0
-27 -51 0
27 151 0
-27 -151 0
27 154 0
-27 -154 0
27 161 0
-27 -161 0
28 32 0
-28 -32 0
28 86 0
-28 -86 0
28 90 0
-28 -90 0
28 161 0
-28 -161 0
28 174 0
-28 -174 0
29 49 0
-29 -49 0
29 68 0
-29 -68 0
29 95 0
-29 -95 0
29 122 0
-29 -122 0
29 128 0
-29 -128 0
29 154 0
-29 -154 0
29 159 0
-29 -159 0
29 162 0
-29 -162 0
30 80 0
-30 -80 0
31 91 0
-31 -91 0
31 127 0
-31 -127 0
31 140 0
-31 -140 0
31 160 0
-31 -160 0
32 44 0
-32 -44 0
32 51 0
-32 -51 0
32 58 0
-32 -58 0
32 89 0
-32 -89 0
32 115 0
-32 -115 0
32 127 0
-32 -127 0
32 178 0
-32 -178 0
33 82 0
-33 -82 0
33 108 0
-33 -108 0
33 113 0
-33 -113 0
33 118 0
-33 -118 0
33 122 0
-33 -122 0
33 131 0
-33 -131 0
33 137 0
-33 -137 0
33 151 0
-33 -151 0
33 153 0
-33 -153 0
33 158 0
-33 -158 0
33 163 0
-33 -163 0
34 112 0
-34 -112 0
34 134 0
-34 -134 0
34 143 0
-34 -143 0
34 150 0
-34 -150 0
35 72 0
-35 -72 0
35 96 0
-35 -96 0
35 100 0
-35 -100 0
35 136 0
-35 -136 0
35 155 0
-35 -155 0
36 102 0
-36 -102 0
36 104 0
-36 -104 0
36 112 0
-36 -112 0
37 40 0
-37 -40 0
37 71 0
-37 -71 0
37 82 0
-37 -82 0
37 83 0
-37 -83 0
37 129 0
-37 -129 0
37 139 0
-37 -139 0
37 146 0
-37 -146 0
37 178 0
-37 -178 0
38 61 0
-38 -61 0
38 90 0
-38 -90 0
38 122 0
-38 -122 0
38 128 0
-38 -128 0
38 146 0
-38 -146 0
38 151 0
-38 -151 0
39 73 0
-39 -73 0
39 78 0
-39 -78 0
39 146 0
-39 -146 0
40 76 0
-40 -76 0
40 78 0
-40 -78 0
40 148 0
-40 -148 0
40 168 0
-40 -168 0
41 84 0
-41 -84 0
41 87 0
-41 -87 0
41 90 0
-41 -90 0
41 119 0
-41 -119 0
42 53 0
-42 -53 0
42 62 0
-42 -62 0
42 97 0
-42 -97 0
42 111 0
-42 -111 0
43 54 0
-43 -54 0
43 106 0
-43 -106 0
43 125 0
-43 -125 0
43 130 0
-43 -130 0
43 159 0
-43 -159 0
43 165 0
-43 -165 0
44 50 0
-44 -50 0
44 56 0
-44 -56 0
44 70 0
-44 -70 0
44 75 0
-44 -75 0
44 126 0
-44 -126 0
44 131 0
-44 -131 0
44 133 0
-44 -133 0
44 150 0
-44 -150 0
44 166 0
-44 -166 0
44 179 0
-44 -179 0
45 67 0
-45 -67 0
45 71 0
-45 -71 0
45 156 0
-45 -156 0
46 85 0
-46 -85 0
46 153 0
-46 -153 0
46 175 0
-46 -175 0
47 52 0
-47 -52 0
47 71 0
-47 -71 0
47 85 0
-47 -85 0
47 133 0
-47 -133 0
48 96 0
-48 -96 0
48 104 0
-48 -104 0
48 160 0
-48 -160 0
48 178 0
-48 -178 0
49 90 0
-49 -90 0
49 113 0
-49 -113 0
49 115 0
-49 -115 0
49 152 0
-49 -152 0
49 163 0
-49 -163 0
49 179 0
-49 -179 0
50 87 0
-50 -87 0
50 100 0
-50 -100 0
50 132 0
-50 -132 0
50 156 0
-50 -156 0
51 56 0
-51 -56 0
51 84 0
-51 -84 0
51 110 0
-51 -110 0
51 167 0
-51 -167 0
52 61 0
-52 -61 0
52 142 0
-52 -142 0
52 176 0
-52 -176 0
53 77 0
-53 -77 0
53 81 0
-53 -81 0
53 116 0
-53 -116 0
53 125 0
-53 -125 0
53 161 0
-53 -161 0
53 170 0
-53 -170 0
54 64 0
-54 -64 0
54 101 0
-54 -101 0
54 118 0
-54 -118 0
54 130 0
-54 -130 0
54 152 0
-54 -152 0
54 173 0
-54 -173 0
55 70 0
-55 -70 0
55 74 0
-55 -74 0
55 80 0
-55 -80 0
55 107 0
-55 -107 0
55 114 0
-55 -114 0
56 83 0
-56 -83 0
56 84 0
-56 -84 0
56 86 0
-56 -86 0
56 96 0
-56 -96 0
56 149 0
-56 -149 0
56 163 0
-56 -163 0
57 104 0
-57 -104 0
57 131 0
-57 -131 0
57 139 0
-57 -139 0
58 62 0
-58 -62 0
58 74 0
-58 -74 0
58 91 0
-58 -91 0
58 98 0
-58 -98 0
58 110 0
-58 -110 0
58 122 0
-58 -122 0
58 136 0
-58 -136 0
58 144 0
-58 -144 0
58 146 0
-58 -146 0
58 147 0
-58 -147 0
58 149 0
-58 -149 0
58 152 0
-58 -152 0
59 68 0
-59 -68 0
59 71 0
-59 -71 0
59 83 0
-59 -83 0
59 117 0
-59 -117 0
59 125 0
-59 -125 0
60 62 0
-60 -62 0
60 76 0
-60 -76 0
60 79 0
-60 -79 0
60 99 0
-60 -99 0
60 108 0
-60 -108 0
60 118 0
-60 -118 0
60 120 0
-60 -120 0
60 158 0
-60 -158 0
60 174 0
-60 -174 0
61 67 0
-61 -67 0
61 69 0
-61 -69 0
61 84 0
-61 -84 0
61 95 0
-61 -95 0
61 103 0
-61 -103 0
61 135 0
-61 -135 0
61 148 0
-61 -148 0
61 163 0
-61 -163 0
62 82 0
-62 -82 0
62 113 0
-62 -113 0
62 137 0
-62 -137 0
62 180 0
-62 -180 0
63 64 0
-63 -64 0
63 67 0
-63 -67 0
63 68 0
-63 -68 0
63 110 0
-63 -110 0
63 154 0
-63 -154 0
64 87 0
-64 -87 0
64 111 0
-64 -111 0
64 127 0
-64 -127 0
64 138 0
-64 -138 0
64 144 0
-64 -144 0
64 150 0
-64 -150 0
65 123 0
-65 -123 0
65 155 0
-65 -155 0
65 156 0
-65 -156 0
66 68 0
-66 -68 0
66 109 0
-66 -109 0
66 114 0
-66 -114 0
66 137 0
-66 -137 0
66 159 0
-66 -159 0
67 99 0
-67 -99 0
67 104 0
-67 -104 0
67 140 0
-67 -140 0
67 180 0
-67 -180 0
68 121 0
-68 -121 0
68 132 0
-68 -132 0
68 133 0
-68 -133 0
68 142 0
-68 -142 0
68 150 0
-68 -150 0
69 83 0
-69 -83 0
69 85 0
-69 -85 0
69 133 0
-69 -133 0
70 74 0
-70 -74 0
70 90 0
-70 -90 0
70 102 0
-70 -102 0
70 124 0
-70 -124 0
70 145 0
-70 -145 0
71 73 0
-71 -73 0
71 83 0
-71 -83 0
71 95 0
-71 -95 0
71 100 0
-71 -100 0
71 166 0
-71 -166 0
72 88 0
-72 -88 0
72 178 0
-72 -178 0
73 83 0
-73 -83 0
73 86 0
-73 -86 0
73 121 0
-73 -121 0
73 126 0
-73 -126 0
73 129 0
-73 -129 0
74 87 0
-74 -87 0
74 160 0
-74 -160 0
75 85 0
-75 -85 0
75 90 0
-75 -90 0
76 77 0
-76 -77 0
76 85 0
-76 -85 0
76 88 0
-76 -88 0
76 115 0
-76 -115 0
76 171 0
-76 -171 0
77 171 0
-77 -171 0
77 174 0
-77 -174 0
78 107 0
-78 -107 0
78 128 0
-78 -128 0
79 90 0
-79 -90 0
79 114 0
-79 -114 0
79 128 0
-79 -128 0
79 160 0
-79 -160 0
79 178 0
-79 -178 0
80 123 0
-80 -123 0
81 117 0
-81 -117 0
81 164 0
-81 -164 0
81 174 0
-81 -174 0
82 83 0
-82 -83 0
82 88 0
-82 -88 0
82 99 0
-82 -99 0
82 105 0
-82 -105 0
82 106 0
-82 -106 0
82 115 0
-82 -115 0
82 128 0
-82 -128 0
82 134 0
-82 -134 0
83 113 0
-83 -113 0
83 132 0
-83 -132 0
83 145 0
-83 -145 0
83 148 0
-83 -148 0
84 164 0
-84 -164 0
85 132 0
-85 -132 0
85 173 0
-85 -173 0
86 129 0
-86 -129 0
86 165 0
-86 -165 0
86 175 0
-86 -175 0
87 107 0
-87 -107 0
87 160 0
-87 -160 0
88 98 0
-88 -98 0
88 116 0
-88 -116 0
88 141 0
-88 -141 0
88 171 0
-88 -171 0
89 166 0
-89 -166 0
90 157 0
-90 -157 0
91 96 0
-91 -96 0
91 109 0
-91 -109 0
91 139 0
-91 -139 0
92 108 0
-92 -108 0
92 125 0
-92 -125 0
93 96 0
-93 -96 0
93 108 0
-93 -108 0
93 116 0
-93 -116 0
93 131 0
-93 -131 0
93 158 0
-93 -158 0
93 179 0
-93 -179 0
94 96 0
-94 -96 0
94 111 0
-94 -111 0
94 121 0
-94 -121 0
94 167 0
-94 -167 0
94 180 0
-94 -180 0
95 110 0
-95 -110 0
95 117 0
-95 -117 0
95 121 0
-95 -121 0
95 125 0
-95 -125 0
95 127 0
-95 -127 0
96 173 0
-96 -173 0
96 179 0
-96 -179 0
97 136 0
-97 -136 0
98 111 0
-98 -111 0
98 127 0
-98 -127 0
98 135 0
-98 -135 0
98 171 0
-98 -171 0
99 111 0
-99 -111 0
99 122 0
-99 -122 0
100 119 0
-100 -119 0
100 131 0
-100 -131 0
100 137 0
-100 -137 0
100 148 0
-100 -148 0
101 105 0
-101 -105 0
102 177 0
-102 -177 0
103 106 0
-103 -106 0
103 127 0
-103 -127 0
103 134 0
-103 -134 0
103 138 0
-103 -138 0
103 154 0
-103 -154 0
103 170 0
-103 -170 0
104 118 0
-104 -118 0
104 144 0
-104 -144 0
104 153 0
-104 -153 0
105 109 0
-105 -109 0
105 112 0
-105 -112 0
105 147 0
-105 -147 0
105 148 0
-105 -148 0
105 163 0
-105 -163 0
105 165 0
-105 -165 0
105 167 0
-105 -167 0
105 176 0
-105 -176 0
106 109 0
-106 -109 0
106 116 0
-106 -116 0
106 120 0
-106 -120 0
106 168 0
-106 -168 0
107 151 0
-107 -151 0
108 119 0
-108 -119 0
108 165 0
-108 -165 0
109 124 0
-109 -124 0
109 134 0
-109 -134 0
110 130 0
-110 -130 0
110 167 0
-110 -167 0
111 123 0
-111 -123 0
111 131 0
-111 -131 0
111 148 0
-111 -148 0
111 173 0
-111 -173 0
112 150 0
-112 -150 0
112 157 0
-112 -157 0
113 126 0
-113 -126 0
113 129 0
-113 -129 0
113 144 0
-113 -144 0
113 160 0
-113 -160 0
113 168 0
-113 -168 0
114 161 0
-114 -161 0
114 165 0
-114 -165 0
115 133 0
-115 -133 0
116 129 0
-116 -129 0
116 156 0
-116 -156 0
116 180 0
-116 -180 0
118 127 0
-118 -127 0
118 128 0
-118 -128 0
118 154 0
-118 -154 0
119 122 0
-119 -122 0
119 164 0
-119 -164 0
120 156 0
-120 -156 0
121 175 0
-121 -175 0
121 180 0
-121 -180 0
123 152 0
-123 -152 0
124 126 0
-124 -126 0
124 145 0
-124 -145 0
124 168 0
-124 -168 0
124 177 0
-124 -177 0
125 141 0
-125 -141 0
125 144 0
-125 -144 0
125 154 0
-125 -154 0
126 155 0
-126 -155 0
126 162 0
-126 -162 0
126 169 0
-126 -169 0
126 171 0
-126 -171 0
127 132 0
-127 -132 0
127 180 0
-127 -180 0
130 151 0
-130 -151 0
130 163 0
-130 -163 0
130 167 0
-130 -167 0
131 139 0
-131 -139 0
132 149 0
-132 -149 0
133 158 0
-133 -158 0
133 159 0
-133 -159 0
133 179 0
-133 -179 0
134 157 0
-134 -157 0
135 153 0
-135 -153 0
137 161 0
-137 -161 0
137 171 0
-137 -171 0
138 148 0
-138 -148 0
138 155 0
-138 -155 0
138 163 0
-138 -163 0
138 176 0
-138 -176 0
139 154 0
-139 -154 0
140 170 0
-140 -170 0
141 146 0
-141 -146 0
142 146 0
-142 -146 0
142 155 0
-142 -155 0
142 171 0
-142 -171 0
143 145 0
-143 -145 0
143 146 0
-143 -146 0
143 152 0
-143 -152 0
143 172 0
-143 -172 0
143 175 0
-143 -175 0
144 145 0
-144 -145 0
144 158 0
-144 -158 0
144 170 0
-144 -170 0
144 171 0
-144 -171 0
146 164 0
-146 -164 0
146 170 0
-146 -170 0
148 155 0
-148 -155 0
149 178 0
-149 -178 0
150 162 0
-150 -162 0
150 177 0
-150 -177 0
151 173 0
-151 -173 0
151 175 0
-151 -175 0
152 162 0
-152 -162 0
152 175 0
-152 -175 0
155 179 0
-155 -179 0
156 168 0
-156 -168 0
156 172 0
-156 -172 0
159 177 0
-159 -177 0
161 179 0
-161 -179 0
165 170 0
-165 -170 0
171 173 0
-171 -173 0
171 177 0
-171 -177 0
172 178 0
-172 -178 0
173 178 0
-173 -178 0
