FourierSAT_Github_AIJ/res/fs_1core/s2v180c1200-1.cnf.txt
o 156
o 143
